DIMENSION: 14
EDGE_WEIGHT_TYPE: EXPLICIT
EDGE_WEIGHT_FORMAT: FULL_MATRIX
EDGE_WEIGHT_SECTION:
32767 32767 32767 32767 19 32767 9 32767 36 32767 32767 38 32767 32767 
32767 32767 81 32767 32767 42 25 32767 32767 48 32767 82 32767 32767 
32767 81 32767 73 45 32767 4 32767 32767 32767 58 32767 82 32767 
32767 32767 73 32767 32767 32767 32767 45 32767 32767 32767 32767 32767 56 
19 32767 45 32767 32767 32767 32767 53 32767 32767 30 32767 32767 32767 
32767 42 32767 32767 32767 32767 44 32767 32767 32767 32767 79 32767 32767 
9 25 4 32767 32767 44 32767 14 32767 32767 32767 32767 7 32767 
32767 32767 32767 45 53 32767 14 32767 32767 32767 32767 62 32767 32767 
36 32767 32767 32767 32767 32767 32767 32767 32767 43 63 32767 32767 98 
32767 48 32767 32767 32767 32767 32767 32767 43 32767 3 32767 32767 65 
32767 32767 58 32767 30 32767 32767 32767 63 3 32767 12 32 67 
38 82 32767 32767 32767 79 32767 62 32767 32767 12 32767 32767 32767 
32767 32767 82 32767 32767 32767 7 32767 32767 32767 32 32767 32767 32767 
32767 32767 32767 56 32767 32767 32767 32767 98 65 67 32767 32767 32767 
EOF